c strEdges: 125  randomEdges: 504 
c degrees:  1  2 
c girth: Inf max: -43.604516  
c Hgirth mixed MAXCUT instance
c generated from an undirected graph
c to solve unweighted MaxCut
p cnf 140 1258
71 93 0
-71 -93 0
71 139 0
-71 -139 0
132 64 0
-132 -64 0
132 65 0
-132 -65 0
99 16 0
-99 -16 0
99 81 0
-99 -81 0
88 5 0
-88 -5 0
88 70 0
-88 -70 0
140 48 0
-140 -48 0
89 44 0
-89 -44 0
89 7 0
-89 -7 0
124 113 0
-124 -113 0
124 64 0
-124 -64 0
25 75 0
-25 -75 0
25 38 0
-25 -38 0
57 78 0
-57 -78 0
94 105 0
-94 -105 0
94 32 0
-94 -32 0
6 77 0
-6 -77 0
114 76 0
-114 -76 0
66 67 0
-66 -67 0
66 51 0
-66 -51 0
8 128 0
-8 -128 0
8 87 0
-8 -87 0
112 122 0
-112 -122 0
112 39 0
-112 -39 0
28 39 0
-28 -39 0
28 12 0
-28 -12 0
47 41 0
-47 -41 0
47 117 0
-47 -117 0
11 12 0
-11 -12 0
11 46 0
-11 -46 0
9 116 0
-9 -116 0
9 78 0
-9 -78 0
52 63 0
-52 -63 0
52 44 0
-52 -44 0
123 107 0
-123 -107 0
123 34 0
-123 -34 0
49 127 0
-49 -127 0
72 100 0
-72 -100 0
72 107 0
-72 -107 0
90 82 0
-90 -82 0
90 104 0
-90 -104 0
59 32 0
-59 -32 0
59 127 0
-59 -127 0
125 139 0
-125 -139 0
4 62 0
-4 -62 0
4 13 0
-4 -13 0
129 117 0
-129 -117 0
129 82 0
-129 -82 0
111 1 0
-111 -1 0
111 108 0
-111 -108 0
31 13 0
-31 -13 0
133 45 0
-133 -45 0
133 36 0
-133 -36 0
3 42 0
-3 -42 0
3 56 0
-3 -56 0
91 73 0
-91 -73 0
69 136 0
-69 -136 0
15 102 0
-15 -102 0
15 20 0
-15 -20 0
53 58 0
-53 -58 0
53 101 0
-53 -101 0
54 56 0
-54 -56 0
131 20 0
-131 -20 0
131 100 0
-131 -100 0
24 96 0
-24 -96 0
24 1 0
-24 -1 0
118 121 0
-118 -121 0
118 136 0
-118 -136 0
130 38 0
-130 -38 0
130 42 0
-130 -42 0
43 51 0
-43 -51 0
43 77 0
-43 -77 0
17 30 0
-17 -30 0
115 84 0
-115 -84 0
115 96 0
-115 -96 0
86 18 0
-86 -18 0
86 84 0
-86 -84 0
14 23 0
-14 -23 0
61 46 0
-61 -46 0
74 101 0
-74 -101 0
74 126 0
-74 -126 0
83 40 0
-83 -40 0
83 5 0
-83 -5 0
85 126 0
-85 -126 0
85 76 0
-85 -76 0
2 138 0
-2 -138 0
2 128 0
-2 -128 0
26 109 0
-26 -109 0
26 105 0
-26 -105 0
103 108 0
-103 -108 0
103 62 0
-103 -62 0
29 21 0
-29 -21 0
29 23 0
-29 -23 0
60 50 0
-60 -50 0
60 33 0
-60 -33 0
120 119 0
-120 -119 0
120 35 0
-120 -35 0
55 34 0
-55 -34 0
55 116 0
-55 -116 0
37 33 0
-37 -33 0
37 110 0
-37 -110 0
137 7 0
-137 -7 0
137 67 0
-137 -67 0
134 35 0
-134 -35 0
134 18 0
-134 -18 0
92 104 0
-92 -104 0
79 81 0
-79 -81 0
79 138 0
-79 -138 0
106 98 0
-106 -98 0
19 68 0
-19 -68 0
19 121 0
-19 -121 0
27 65 0
-27 -65 0
27 122 0
-27 -122 0
135 110 0
-135 -110 0
135 16 0
-135 -16 0
80 36 0
-80 -36 0
80 21 0
-80 -21 0
22 70 0
-22 -70 0
22 75 0
-22 -75 0
97 87 0
-97 -87 0
97 40 0
-97 -40 0
95 10 0
-95 -10 0
95 50 0
-95 -50 0
72 48 0
-72 -48 0
130 85 0
-130 -85 0
56 46 0
-56 -46 0
95 105 0
-95 -105 0
92 48 0
-92 -48 0
72 40 0
-72 -40 0
49 59 0
-49 -59 0
8 38 0
-8 -38 0
99 120 0
-99 -120 0
54 7 0
-54 -7 0
77 58 0
-77 -58 0
125 110 0
-125 -110 0
115 113 0
-115 -113 0
11 120 0
-11 -120 0
124 2 0
-124 -2 0
15 109 0
-15 -109 0
66 52 0
-66 -52 0
26 97 0
-26 -97 0
117 10 0
-117 -10 0
5 82 0
-5 -82 0
78 36 0
-78 -36 0
100 40 0
-100 -40 0
111 113 0
-111 -113 0
72 83 0
-72 -83 0
113 107 0
-113 -107 0
94 63 0
-94 -63 0
133 126 0
-133 -126 0
17 20 0
-17 -20 0
121 36 0
-121 -36 0
135 95 0
-135 -95 0
125 119 0
-125 -119 0
88 94 0
-88 -94 0
80 138 0
-80 -138 0
123 84 0
-123 -84 0
83 92 0
-83 -92 0
106 136 0
-106 -136 0
88 114 0
-88 -114 0
9 65 0
-9 -65 0
89 3 0
-89 -3 0
115 55 0
-115 -55 0
43 19 0
-43 -19 0
19 76 0
-19 -76 0
59 4 0
-59 -4 0
8 18 0
-8 -18 0
6 32 0
-6 -32 0
125 31 0
-125 -31 0
41 35 0
-41 -35 0
88 59 0
-88 -59 0
71 76 0
-71 -76 0
82 58 0
-82 -58 0
2 78 0
-2 -78 0
6 24 0
-6 -24 0
69 105 0
-69 -105 0
28 100 0
-28 -100 0
90 108 0
-90 -108 0
112 40 0
-112 -40 0
3 110 0
-3 -110 0
128 21 0
-128 -21 0
49 10 0
-49 -10 0
59 95 0
-59 -95 0
68 36 0
-68 -36 0
11 67 0
-11 -67 0
8 111 0
-8 -111 0
11 79 0
-11 -79 0
49 24 0
-49 -24 0
102 110 0
-102 -110 0
103 63 0
-103 -63 0
115 60 0
-115 -60 0
4 84 0
-4 -84 0
45 23 0
-45 -23 0
47 55 0
-47 -55 0
59 27 0
-59 -27 0
74 64 0
-74 -64 0
8 101 0
-8 -101 0
116 34 0
-116 -34 0
54 70 0
-54 -70 0
136 51 0
-136 -51 0
103 138 0
-103 -138 0
11 77 0
-11 -77 0
11 37 0
-11 -37 0
38 10 0
-38 -10 0
129 85 0
-129 -85 0
130 40 0
-130 -40 0
107 33 0
-107 -33 0
43 120 0
-43 -120 0
105 116 0
-105 -116 0
99 12 0
-99 -12 0
82 96 0
-82 -96 0
140 65 0
-140 -65 0
43 30 0
-43 -30 0
89 118 0
-89 -118 0
89 136 0
-89 -136 0
75 42 0
-75 -42 0
103 68 0
-103 -68 0
47 51 0
-47 -51 0
129 23 0
-129 -23 0
103 128 0
-103 -128 0
89 93 0
-89 -93 0
55 16 0
-55 -16 0
115 93 0
-115 -93 0
61 103 0
-61 -103 0
3 26 0
-3 -26 0
66 24 0
-66 -24 0
3 95 0
-3 -95 0
49 34 0
-49 -34 0
43 74 0
-43 -74 0
5 96 0
-5 -96 0
6 4 0
-6 -4 0
60 22 0
-60 -22 0
133 63 0
-133 -63 0
72 7 0
-72 -7 0
85 30 0
-85 -30 0
64 51 0
-64 -51 0
129 83 0
-129 -83 0
94 72 0
-94 -72 0
6 92 0
-6 -92 0
79 98 0
-79 -98 0
66 121 0
-66 -121 0
4 122 0
-4 -122 0
99 64 0
-99 -64 0
6 12 0
-6 -12 0
99 1 0
-99 -1 0
80 44 0
-80 -44 0
131 35 0
-131 -35 0
89 22 0
-89 -22 0
28 51 0
-28 -51 0
72 32 0
-72 -32 0
34 110 0
-34 -110 0
69 36 0
-69 -36 0
31 2 0
-31 -2 0
4 30 0
-4 -30 0
106 63 0
-106 -63 0
43 48 0
-43 -48 0
126 7 0
-126 -7 0
106 27 0
-106 -27 0
80 127 0
-80 -127 0
4 131 0
-4 -131 0
94 119 0
-94 -119 0
71 79 0
-71 -79 0
61 134 0
-61 -134 0
60 110 0
-60 -110 0
6 11 0
-6 -11 0
14 56 0
-14 -56 0
2 110 0
-2 -110 0
24 44 0
-24 -44 0
66 15 0
-66 -15 0
131 138 0
-131 -138 0
66 31 0
-66 -31 0
53 42 0
-53 -42 0
24 108 0
-24 -108 0
15 48 0
-15 -48 0
42 68 0
-42 -68 0
1 70 0
-1 -70 0
130 33 0
-130 -33 0
92 109 0
-92 -109 0
116 33 0
-116 -33 0
33 35 0
-33 -35 0
130 10 0
-130 -10 0
135 121 0
-135 -121 0
67 81 0
-67 -81 0
90 58 0
-90 -58 0
31 104 0
-31 -104 0
125 20 0
-125 -20 0
80 100 0
-80 -100 0
48 76 0
-48 -76 0
43 65 0
-43 -65 0
135 22 0
-135 -22 0
120 128 0
-120 -128 0
71 16 0
-71 -16 0
73 104 0
-73 -104 0
140 120 0
-140 -120 0
83 38 0
-83 -38 0
39 30 0
-39 -30 0
91 122 0
-91 -122 0
14 74 0
-14 -74 0
37 121 0
-37 -121 0
133 51 0
-133 -51 0
14 110 0
-14 -110 0
114 97 0
-114 -97 0
59 96 0
-59 -96 0
4 134 0
-4 -134 0
94 15 0
-94 -15 0
75 45 0
-75 -45 0
115 104 0
-115 -104 0
91 58 0
-91 -58 0
88 8 0
-88 -8 0
80 39 0
-80 -39 0
72 106 0
-72 -106 0
91 68 0
-91 -68 0
112 63 0
-112 -63 0
131 43 0
-131 -43 0
128 39 0
-128 -39 0
39 104 0
-39 -104 0
19 27 0
-19 -27 0
94 97 0
-94 -97 0
61 38 0
-61 -38 0
137 45 0
-137 -45 0
103 96 0
-103 -96 0
82 139 0
-82 -139 0
17 39 0
-17 -39 0
11 41 0
-11 -41 0
136 50 0
-136 -50 0
26 51 0
-26 -51 0
2 113 0
-2 -113 0
89 138 0
-89 -138 0
117 58 0
-117 -58 0
31 62 0
-31 -62 0
43 44 0
-43 -44 0
114 92 0
-114 -92 0
105 98 0
-105 -98 0
54 2 0
-54 -2 0
4 22 0
-4 -22 0
3 58 0
-3 -58 0
12 117 0
-12 -117 0
74 81 0
-74 -81 0
64 56 0
-64 -56 0
128 10 0
-128 -10 0
75 68 0
-75 -68 0
84 98 0
-84 -98 0
90 122 0
-90 -122 0
44 39 0
-44 -39 0
100 46 0
-100 -46 0
19 96 0
-19 -96 0
85 107 0
-85 -107 0
67 10 0
-67 -10 0
115 81 0
-115 -81 0
52 135 0
-52 -135 0
43 79 0
-43 -79 0
25 92 0
-25 -92 0
4 96 0
-4 -96 0
80 64 0
-80 -64 0
24 50 0
-24 -50 0
107 117 0
-107 -117 0
114 87 0
-114 -87 0
132 10 0
-132 -10 0
118 119 0
-118 -119 0
128 139 0
-128 -139 0
123 54 0
-123 -54 0
76 1 0
-76 -1 0
41 62 0
-41 -62 0
11 63 0
-11 -63 0
92 81 0
-92 -81 0
55 13 0
-55 -13 0
89 33 0
-89 -33 0
24 23 0
-24 -23 0
14 61 0
-14 -61 0
3 60 0
-3 -60 0
114 34 0
-114 -34 0
95 18 0
-95 -18 0
91 84 0
-91 -84 0
88 78 0
-88 -78 0
8 73 0
-8 -73 0
31 103 0
-31 -103 0
80 136 0
-80 -136 0
94 107 0
-94 -107 0
16 121 0
-16 -121 0
69 85 0
-69 -85 0
39 136 0
-39 -136 0
49 126 0
-49 -126 0
111 84 0
-111 -84 0
89 23 0
-89 -23 0
115 138 0
-115 -138 0
80 63 0
-80 -63 0
24 109 0
-24 -109 0
31 106 0
-31 -106 0
52 116 0
-52 -116 0
26 38 0
-26 -38 0
55 107 0
-55 -107 0
58 110 0
-58 -110 0
79 12 0
-79 -12 0
95 42 0
-95 -42 0
92 126 0
-92 -126 0
63 62 0
-63 -62 0
95 82 0
-95 -82 0
138 10 0
-138 -10 0
24 62 0
-24 -62 0
111 29 0
-111 -29 0
103 13 0
-103 -13 0
90 79 0
-90 -79 0
132 53 0
-132 -53 0
105 51 0
-105 -51 0
22 128 0
-22 -128 0
111 2 0
-111 -2 0
52 83 0
-52 -83 0
72 81 0
-72 -81 0
17 81 0
-17 -81 0
14 29 0
-14 -29 0
6 127 0
-6 -127 0
127 34 0
-127 -34 0
133 138 0
-133 -138 0
61 98 0
-61 -98 0
83 135 0
-83 -135 0
6 48 0
-6 -48 0
124 103 0
-124 -103 0
132 84 0
-132 -84 0
8 98 0
-8 -98 0
86 13 0
-86 -13 0
94 40 0
-94 -40 0
65 70 0
-65 -70 0
28 95 0
-28 -95 0
113 45 0
-113 -45 0
29 10 0
-29 -10 0
29 79 0
-29 -79 0
96 108 0
-96 -108 0
134 75 0
-134 -75 0
130 30 0
-130 -30 0
53 21 0
-53 -21 0
67 63 0
-67 -63 0
93 63 0
-93 -63 0
130 95 0
-130 -95 0
39 12 0
-39 -12 0
112 93 0
-112 -93 0
83 101 0
-83 -101 0
8 58 0
-8 -58 0
125 109 0
-125 -109 0
49 106 0
-49 -106 0
47 81 0
-47 -81 0
60 119 0
-60 -119 0
41 136 0
-41 -136 0
111 68 0
-111 -68 0
115 70 0
-115 -70 0
118 58 0
-118 -58 0
103 76 0
-103 -76 0
112 131 0
-112 -131 0
110 10 0
-110 -10 0
124 102 0
-124 -102 0
5 35 0
-5 -35 0
86 104 0
-86 -104 0
106 65 0
-106 -65 0
77 126 0
-77 -126 0
131 84 0
-131 -84 0
15 17 0
-15 -17 0
129 56 0
-129 -56 0
5 101 0
-5 -101 0
90 96 0
-90 -96 0
95 7 0
-95 -7 0
99 14 0
-99 -14 0
27 117 0
-27 -117 0
52 100 0
-52 -100 0
105 1 0
-105 -1 0
73 46 0
-73 -46 0
123 103 0
-123 -103 0
88 32 0
-88 -32 0
133 22 0
-133 -22 0
11 24 0
-11 -24 0
69 119 0
-69 -119 0
22 95 0
-22 -95 0
112 68 0
-112 -68 0
115 102 0
-115 -102 0
132 11 0
-132 -11 0
137 16 0
-137 -16 0
113 84 0
-113 -84 0
94 54 0
-94 -54 0
8 115 0
-8 -115 0
122 116 0
-122 -116 0
8 81 0
-8 -81 0
140 43 0
-140 -43 0
90 21 0
-90 -21 0
118 104 0
-118 -104 0
85 84 0
-85 -84 0
74 98 0
-74 -98 0
69 78 0
-69 -78 0
86 120 0
-86 -120 0
6 21 0
-6 -21 0
131 106 0
-131 -106 0
139 70 0
-139 -70 0
47 73 0
-47 -73 0
98 70 0
-98 -70 0
121 126 0
-121 -126 0
43 116 0
-43 -116 0
9 125 0
-9 -125 0
5 138 0
-5 -138 0
105 62 0
-105 -62 0
72 135 0
-72 -135 0
124 1 0
-124 -1 0
132 89 0
-132 -89 0
92 84 0
-92 -84 0
111 78 0
-111 -78 0
45 81 0
-45 -81 0
42 104 0
-42 -104 0
53 13 0
-53 -13 0
75 139 0
-75 -139 0
107 73 0
-107 -73 0
125 77 0
-125 -77 0
127 139 0
-127 -139 0
123 67 0
-123 -67 0
130 113 0
-130 -113 0
47 48 0
-47 -48 0
89 32 0
-89 -32 0
52 139 0
-52 -139 0
11 136 0
-11 -136 0
90 105 0
-90 -105 0
132 49 0
-132 -49 0
121 21 0
-121 -21 0
120 12 0
-120 -12 0
124 54 0
-124 -54 0
27 44 0
-27 -44 0
128 104 0
-128 -104 0
15 116 0
-15 -116 0
49 128 0
-49 -128 0
130 102 0
-130 -102 0
54 131 0
-54 -131 0
102 108 0
-102 -108 0
71 118 0
-71 -118 0
106 48 0
-106 -48 0
105 20 0
-105 -20 0
43 97 0
-43 -97 0
59 29 0
-59 -29 0
25 41 0
-25 -41 0
16 5 0
-16 -5 0
83 55 0
-83 -55 0
15 63 0
-15 -63 0
93 109 0
-93 -109 0
60 12 0
-60 -12 0
26 42 0
-26 -42 0
4 55 0
-4 -55 0
97 32 0
-97 -32 0
132 126 0
-132 -126 0
4 10 0
-4 -10 0
57 38 0
-57 -38 0
69 42 0
-69 -42 0
80 84 0
-80 -84 0
24 12 0
-24 -12 0
71 21 0
-71 -21 0
140 53 0
-140 -53 0
72 2 0
-72 -2 0
99 111 0
-99 -111 0
135 105 0
-135 -105 0
137 128 0
-137 -128 0
73 33 0
-73 -33 0
116 58 0
-116 -58 0
111 26 0
-111 -26 0
94 66 0
-94 -66 0
66 62 0
-66 -62 0
43 107 0
-43 -107 0
132 104 0
-132 -104 0
94 123 0
-94 -123 0
11 91 0
-11 -91 0
31 92 0
-31 -92 0
24 64 0
-24 -64 0
17 106 0
-17 -106 0
66 48 0
-66 -48 0
20 110 0
-20 -110 0
116 51 0
-116 -51 0
49 98 0
-49 -98 0
86 127 0
-86 -127 0
85 100 0
-85 -100 0
99 137 0
-99 -137 0
111 97 0
-111 -97 0
31 135 0
-31 -135 0
20 35 0
-20 -35 0
16 78 0
-16 -78 0
78 67 0
-78 -67 0
94 5 0
-94 -5 0
123 38 0
-123 -38 0
89 94 0
-89 -94 0
134 48 0
-134 -48 0
11 134 0
-11 -134 0
51 50 0
-51 -50 0
57 139 0
-57 -139 0
66 76 0
-66 -76 0
2 120 0
-2 -120 0
130 106 0
-130 -106 0
85 41 0
-85 -41 0
116 101 0
-116 -101 0
76 127 0
-76 -127 0
72 10 0
-72 -10 0
62 56 0
-62 -56 0
39 117 0
-39 -117 0
106 40 0
-106 -40 0
115 14 0
-115 -14 0
114 59 0
-114 -59 0
64 16 0
-64 -16 0
27 45 0
-27 -45 0
140 137 0
-140 -137 0
83 100 0
-83 -100 0
78 45 0
-78 -45 0
97 84 0
-97 -84 0
55 70 0
-55 -70 0
80 104 0
-80 -104 0
8 42 0
-8 -42 0
120 81 0
-120 -81 0
5 76 0
-5 -76 0
26 70 0
-26 -70 0
114 125 0
-114 -125 0
67 46 0
-67 -46 0
88 128 0
-88 -128 0
116 65 0
-116 -65 0
117 42 0
-117 -42 0
133 32 0
-133 -32 0
89 17 0
-89 -17 0
127 70 0
-127 -70 0
8 78 0
-8 -78 0
86 116 0
-86 -116 0
111 70 0
-111 -70 0
125 23 0
-125 -23 0
91 86 0
-91 -86 0
132 67 0
-132 -67 0
9 104 0
-9 -104 0
28 121 0
-28 -121 0
128 121 0
-128 -121 0
103 121 0
-103 -121 0
95 56 0
-95 -56 0
107 138 0
-107 -138 0
